data/solutions/recovery/degenerate/intermediate/binding/degenerate_intermediate_instance37/31.sol
Elapsed time: 0.03
Upper bound: 191567.0
Planning weighted value: 8463829551.0
C[0]=191567.0
C[1]=188429.0
C[2]=182211.0
C[3]=181254.0
C[4]=174608.0
C[5]=172824.0
C[6]=171019.0
C[7]=170599.0
C[8]=163918.0
C[9]=163585.0
C[10]=157261.0
C[11]=128058.0
C[12]=124891.0
C[13]=119784.0
C[14]=0.0
C[15]=0.0
y[0]=11
y[1]=3
y[2]=8
y[3]=1
y[4]=12
y[5]=9
y[6]=0
y[7]=10
y[8]=11
y[9]=2
y[10]=11
y[11]=6
y[12]=12
y[13]=0
y[14]=2
y[15]=5
y[16]=7
y[17]=10
y[18]=2
y[19]=9
y[20]=9
y[21]=13
y[22]=3
y[23]=10
y[24]=4
y[25]=9
y[26]=11
y[27]=12
y[28]=8
y[29]=10
y[30]=6
y[31]=2
y[32]=0
y[33]=7
y[34]=2
y[35]=4
y[36]=9
y[37]=13
y[38]=0
y[39]=7
y[40]=13
y[41]=3
y[42]=13
y[43]=5
y[44]=8
y[45]=7
y[46]=12
y[47]=13
y[48]=8
y[49]=7
y[50]=5
y[51]=1
y[52]=3
y[53]=6
y[54]=10
y[55]=4
y[56]=2
y[57]=3
y[58]=1
y[59]=4
y[60]=2
y[61]=6
y[62]=1
y[63]=5
y[64]=9
