data/solutions/recovery/degenerate/intermediate/binding/degenerate_intermediate_instance37/31.log

Log started (V12.6.3.0) Sun Apr 22 12:33:24 2018

New value for default parallel thread count: 1

Problem '/tmp/tmp33ZjRh.pyomo.lp' read.
Read time = 0.01 sec. (0.75 ticks)

Problem name         : /tmp/tmp33ZjRh.pyomo.lp
Objective sense      : Minimize
Variables            :    1058  [Nneg: 1,  Binary: 1040,  General Integer: 17]
Objective nonzeros   :       1
Linear constraints   :     165  [Less: 81,  Equal: 84]
  Nonzeros           :   53902
  RHS nonzeros       :      66

Variables            : Min LB: 0.000000         Max UB: 1.000000       
Objective nonzeros   : Min   : 1.000000         Max   : 1.000000       
Linear constraints   :
  Nonzeros           : Min   : 1.000000         Max   : 128311.0       
  RHS nonzeros       : Min   : 1.000000         Max   : 1.000000       
Tried aggregator 2 times.
MIP Presolve eliminated 125 rows and 875 columns.
Aggregator did 14 substitutions.
Reduced MIP has 26 rows, 169 columns, and 350 nonzeros.
Reduced MIP has 168 binaries, 1 generals, 0 SOSs, and 0 indicators.
Presolve time = 0.00 sec. (3.83 ticks)
Found incumbent of value 823459.000000 after 0.00 sec. (5.18 ticks)
Probing time = 0.00 sec. (0.21 ticks)
Tried aggregator 1 time.
Reduced MIP has 26 rows, 169 columns, and 350 nonzeros.
Reduced MIP has 168 binaries, 1 generals, 0 SOSs, and 0 indicators.
Presolve time = 0.00 sec. (0.28 ticks)
Probing time = 0.00 sec. (0.21 ticks)
Clique table members: 12.
MIP emphasis: balance optimality and feasibility.
MIP search method: dynamic search.
Parallel mode: none, using 1 thread.
Root relaxation solution time = 0.00 sec. (0.20 ticks)

        Nodes                                         Cuts/
   Node  Left     Objective  IInf  Best Integer    Best Bound    ItCnt     Gap

*     0+    0                       823459.0000   191567.0000            76.74%
      0     0   191567.0000    15   823459.0000   191567.0000       36   76.74%
*     0+    0                       248095.0000   191567.0000            22.78%
      0     0   191567.0000     8   248095.0000      Cuts: 10       46   22.78%
*     0+    0                       191567.0000   191567.0000             0.00%
      0     0        cutoff         191567.0000   191567.0000       46    0.00%
Elapsed time = 0.01 sec. (7.40 ticks, tree = 0.01 MB, solutions = 3)

Implied bound cuts applied:  1
Mixed integer rounding cuts applied:  5
Gomory fractional cuts applied:  1

Root node processing (before b&c):
  Real time             =    0.01 sec. (7.45 ticks)
Sequential b&c:
  Real time             =    0.00 sec. (0.00 ticks)
                          ------------
Total (root+branch&cut) =    0.01 sec. (7.45 ticks)

Solution pool: 3 solutions saved.

MIP - Integer optimal solution:  Objective =  1.9156700000e+05
Solution time =    0.01 sec.  Iterations = 46  Nodes = 0
Deterministic time = 7.45 ticks  (962.59 ticks/sec)


Incumbent solution written to file '/tmp/tmpdb2ZVn.cplex.sol'.
